31 1000
9 120
6 137
5 16
5 165
11 157
4 101
2 123
3 116
6 126
8 145
7 176
11 126
10 175
6 157
2 101
5 137
3 165
7 155
11 168
6 176
8 199
3 142
11 175
10 116
4 123
4 199
10 168
11 120
6 145
10 155
8 142
